895040
0 7 23751
7 8 54348
8 5 47657
5 33 56283
33 11 39714
11 32 3966
32 25 15457
25 4 32088
4 31 3289
31 19 24201
19 21 39757
21 3 23621
3 39 28500
39 18 13572
18 15 62439
15 2 71701
2 13 30026
13 16 42390
16 14 45489
14 23 144349
23 12 81858
12 27 6411
27 30 12751
30 36 11155
36 29 941
29 38 6375
38 24 4093
24 22 11530
22 37 7448
37 28 744
28 35 16894
35 6 11793
6 17 20722
17 26 12605
26 1 15287
1 34 10541
34 10 5412
10 9 5506
9 20 5744
20 0 6578
